28 28
22
3 3   23 4 
4 3   24 1 
3 5   19 16
6 3   17 3 
7 3   11 0 
8 3   16 0 
3 9   20 7 
3 10  0 13
11 3   8 16
16 3   7 7 
17 3   3 7 
21 3   4 7 
23 3   2 10
4 3   13 13
4 4   15 13
4 5   13 20
8 4   9 19
4 13  3 7 
23 4   0 6 
6 5   11 1 
5 9   22 18
13 5   10 23
